decision_x1=[0,7];
decision_x2=[0,7];
decision_x3=[0,7];
decision_x4=[0,7];
decision_x5=[0,7];
decision_x6=[0,7];
decision_x7=[0,7];
decision_x8=[0,7];
decision_x9=[0,7];
decision_x10=[0,7];
decision_x11=[0,7];
decision_x12=[0,7];
decision_x13=[0,7];
decision_x14=[0,7];
random_y1=[0,7];
random_y2=[0,7];
random_y3=[0,7];
random_y4=[0,7];
random_y5=[0,7];
random_y6=[0,7];
constraint_x2_x1=[
0,0,7|
0,1,3|
0,2,2.2|
0,3,5.5|
0,4,5.6|
0,5,3.2|
0,6,5.2|
0,7,6.3|
1,0,1.5|
1,1,8.2|
1,2,5.2|
1,3,9.5|
1,4,3.6|
1,5,8.4|
1,6,6.6|
1,7,7.8|
2,0,2|
2,1,0.72|
2,2,6.2|
2,3,3.6|
2,4,8.1|
2,5,6.7|
2,6,5.9|
2,7,2|
3,0,7.7|
3,1,2.8|
3,2,0.95|
3,3,9.6|
3,4,4.3|
3,5,0.97|
3,6,0.3|
3,7,1.7|
4,0,7.1|
4,1,4.4|
4,2,5.2|
4,3,2.1|
4,4,8.9|
4,5,9.5|
4,6,5.7|
4,7,4.9|
5,0,2.9|
5,1,9.6|
5,2,5.9|
5,3,0.61|
5,4,4.8|
5,5,3.4|
5,6,7.5|
5,7,7.9|
6,0,5.7|
6,1,6.6|
6,2,2|
6,3,7.7|
6,4,7|
6,5,8.4|
6,6,7.5|
6,7,2.3|
7,0,1.6|
7,1,5.9|
7,2,8.5|
7,3,1.6|
7,4,9.4|
7,5,4.9|
7,6,5.2|
7,7,5.5|
];
constraint_x3_x2=[
0,0,0.33|
0,1,5.1|
0,2,3.3|
0,3,7.6|
0,4,2|
0,5,6.3|
0,6,6|
0,7,1.3|
1,0,8.2|
1,1,2.6|
1,2,3.7|
1,3,6.3|
1,4,3.3|
1,5,8.8|
1,6,8.7|
1,7,5.6|
2,0,8.3|
2,1,6.7|
2,2,7.7|
2,3,2.7|
2,4,0.61|
2,5,3.3|
2,6,9.2|
2,7,0.54|
3,0,5.7|
3,1,2.7|
3,2,1.9|
3,3,0.38|
3,4,0.17|
3,5,4.3|
3,6,3.1|
3,7,0.82|
4,0,9.9|
4,1,5.5|
4,2,3.8|
4,3,6.2|
4,4,7.9|
4,5,4.9|
4,6,2.8|
4,7,3.6|
5,0,2.2|
5,1,2.8|
5,2,0.086|
5,3,1.7|
5,4,4.6|
5,5,0.92|
5,6,6.4|
5,7,8.6|
6,0,9.8|
6,1,6.4|
6,2,3.9|
6,3,2.9|
6,4,2.8|
6,5,8.1|
6,6,5|
6,7,5.2|
7,0,3.4|
7,1,6.6|
7,2,4.6|
7,3,5.5|
7,4,5.5|
7,5,5.4|
7,6,0.76|
7,7,6.5|
];
constraint_x4_x3=[
0,0,3.3|
0,1,3.1|
0,2,5.7|
0,3,3.6|
0,4,8.5|
0,5,0.43|
0,6,2.3|
0,7,9.2|
1,0,5.2|
1,1,1.6|
1,2,5.7|
1,3,6.6|
1,4,4|
1,5,7|
1,6,8.8|
1,7,3.5|
2,0,7.1|
2,1,9|
2,2,2|
2,3,4.3|
2,4,4.7|
2,5,0.92|
2,6,8.1|
2,7,8.7|
3,0,0.41|
3,1,6|
3,2,2.1|
3,3,6.1|
3,4,8.9|
3,5,5.8|
3,6,9.4|
3,7,7.7|
4,0,1.5|
4,1,2.2|
4,2,4.3|
4,3,6.5|
4,4,6.7|
4,5,9.2|
4,6,7|
4,7,1.3|
5,0,7.8|
5,1,4.8|
5,2,0.15|
5,3,8.1|
5,4,5.5|
5,5,4.3|
5,6,8.5|
5,7,6|
6,0,1.1|
6,1,6.8|
6,2,5.4|
6,3,0.43|
6,4,4|
6,5,5.8|
6,6,2|
6,7,3.2|
7,0,4.1|
7,1,9.3|
7,2,3|
7,3,6.1|
7,4,9.4|
7,5,3.8|
7,6,4.2|
7,7,2.9|
];
constraint_x5_x1=[
0,0,5|
0,1,4.9|
0,2,1.1|
0,3,6.2|
0,4,7|
0,5,3.3|
0,6,5.6|
0,7,2.6|
1,0,0.5|
1,1,1|
1,2,8|
1,3,4.3|
1,4,4.1|
1,5,1.8|
1,6,3|
1,7,6.2|
2,0,8.4|
2,1,4.3|
2,2,4.7|
2,3,1.3|
2,4,5.2|
2,5,0.78|
2,6,5.6|
2,7,0.54|
3,0,3.1|
3,1,6.7|
3,2,2.7|
3,3,5.4|
3,4,0.38|
3,5,2.5|
3,6,9.8|
3,7,8.3|
4,0,7.1|
4,1,9|
4,2,1.9|
4,3,4.8|
4,4,3.2|
4,5,1.2|
4,6,6.1|
4,7,4|
5,0,2.1|
5,1,0.79|
5,2,6.5|
5,3,4.1|
5,4,1.8|
5,5,6.4|
5,6,9.2|
5,7,6.2|
6,0,7.4|
6,1,8.6|
6,2,9.1|
6,3,7.2|
6,4,7.8|
6,5,9.2|
6,6,7.1|
6,7,5.9|
7,0,6.5|
7,1,1.3|
7,2,7.9|
7,3,7.9|
7,4,4.2|
7,5,3.2|
7,6,4.3|
7,7,8.4|
];
constraint_x6_x2=[
0,0,3.8|
0,1,5.1|
0,2,7.1|
0,3,4.3|
0,4,2.5|
0,5,6.7|
0,6,5.7|
0,7,4.5|
1,0,0.3|
1,1,1.7|
1,2,7.4|
1,3,9.9|
1,4,5.9|
1,5,4.1|
1,6,3.5|
1,7,9.2|
2,0,5.2|
2,1,4.4|
2,2,7.4|
2,3,7.2|
2,4,8.2|
2,5,8.9|
2,6,1.9|
2,7,1.5|
3,0,0.23|
3,1,4.8|
3,2,0.92|
3,3,2.8|
3,4,4.8|
3,5,0.73|
3,6,3.6|
3,7,7.3|
4,0,1.4|
4,1,3|
4,2,1.1|
4,3,9.2|
4,4,9.7|
4,5,9|
4,6,8.5|
4,7,6.2|
5,0,4.4|
5,1,8.2|
5,2,8.6|
5,3,9.5|
5,4,4.5|
5,5,9.6|
5,6,2.4|
5,7,4.8|
6,0,7.5|
6,1,9.7|
6,2,5.8|
6,3,4.9|
6,4,3.9|
6,5,0.28|
6,6,6|
6,7,4.8|
7,0,9.8|
7,1,2.2|
7,2,8.1|
7,3,8.4|
7,4,4.5|
7,5,8.5|
7,6,1|
7,7,3.8|
];
constraint_x6_x5=[
0,0,6.5|
0,1,4.9|
0,2,7.4|
0,3,2.7|
0,4,5.3|
0,5,9.4|
0,6,4.3|
0,7,6.9|
1,0,0.58|
1,1,2.6|
1,2,9.6|
1,3,8|
1,4,6.6|
1,5,8|
1,6,3.1|
1,7,0.015|
2,0,4.6|
2,1,3.2|
2,2,1.6|
2,3,8.4|
2,4,6|
2,5,1.5|
2,6,0.98|
2,7,0.25|
3,0,6.7|
3,1,5.4|
3,2,4.8|
3,3,7.5|
3,4,9.2|
3,5,1.8|
3,6,0.14|
3,7,6.1|
4,0,0.31|
4,1,3.4|
4,2,7.7|
4,3,4.6|
4,4,2.4|
4,5,1.3|
4,6,0.068|
4,7,4.5|
5,0,8.2|
5,1,8.6|
5,2,4.3|
5,3,2.2|
5,4,6.9|
5,5,7|
5,6,7.1|
5,7,5.9|
6,0,7.7|
6,1,3.4|
6,2,7.7|
6,3,2.4|
6,4,2.8|
6,5,7.9|
6,6,8|
6,7,3.4|
7,0,1.2|
7,1,2.9|
7,2,6.4|
7,3,8.7|
7,4,1.6|
7,5,6.2|
7,6,7.9|
7,7,2.2|
];
constraint_x7_x3=[
0,0,8.4|
0,1,3.1|
0,2,7.2|
0,3,3.8|
0,4,7.2|
0,5,9.7|
0,6,8.5|
0,7,1.1|
1,0,8.4|
1,1,3.5|
1,2,4.4|
1,3,1.9|
1,4,2.1|
1,5,3.6|
1,6,7.8|
1,7,1.2|
2,0,7|
2,1,7|
2,2,0.084|
2,3,2.7|
2,4,6.1|
2,5,6.6|
2,6,5|
2,7,8.4|
3,0,5.5|
3,1,2.7|
3,2,7.9|
3,3,5.1|
3,4,1.5|
3,5,4.4|
3,6,3.6|
3,7,9.6|
4,0,0.27|
4,1,5.8|
4,2,2.9|
4,3,8.6|
4,4,3.6|
4,5,1.8|
4,6,8.4|
4,7,9.3|
5,0,7.9|
5,1,6.3|
5,2,9.8|
5,3,8|
5,4,2|
5,5,2.7|
5,6,1.2|
5,7,3.6|
6,0,7.9|
6,1,2.5|
6,2,7|
6,3,9.1|
6,4,2.6|
6,5,7.9|
6,6,2.3|
6,7,3.8|
7,0,2|
7,1,3.2|
7,2,4.2|
7,3,5.4|
7,4,5.9|
7,5,7.2|
7,6,8.8|
7,7,5.3|
];
constraint_x7_x6=[
0,0,0.96|
0,1,6.9|
0,2,5.4|
0,3,4.3|
0,4,1.5|
0,5,7.7|
0,6,0.044|
0,7,5.7|
1,0,3.1|
1,1,1.7|
1,2,7|
1,3,8|
1,4,6.9|
1,5,7.8|
1,6,1|
1,7,3.3|
2,0,1.4|
2,1,8.5|
2,2,2.1|
2,3,5.1|
2,4,7.4|
2,5,0.12|
2,6,6.2|
2,7,0.22|
3,0,9.8|
3,1,6.6|
3,2,0.38|
3,3,4.9|
3,4,4.1|
3,5,0.074|
3,6,5.1|
3,7,6.8|
4,0,6.8|
4,1,8.1|
4,2,3|
4,3,2|
4,4,0.51|
4,5,2.1|
4,6,3.8|
4,7,0.64|
5,0,4.6|
5,1,3.4|
5,2,7|
5,3,0.096|
5,4,8.3|
5,5,7|
5,6,4.4|
5,7,9.7|
6,0,4.5|
6,1,9.3|
6,2,2.5|
6,3,6.8|
6,4,7|
6,5,8.6|
6,6,4.2|
6,7,4.1|
7,0,5|
7,1,1.2|
7,2,5|
7,3,9.7|
7,4,8.4|
7,5,3.8|
7,6,2.9|
7,7,8|
];
constraint_x8_x4=[
0,0,9.2|
0,1,7.7|
0,2,6.1|
0,3,9.7|
0,4,0.78|
0,5,0.3|
0,6,4.5|
0,7,9.4|
1,0,9.2|
1,1,9.7|
1,2,0.57|
1,3,8.7|
1,4,9.7|
1,5,3.4|
1,6,5.8|
1,7,1.2|
2,0,5.1|
2,1,5.4|
2,2,6.6|
2,3,2|
2,4,8.3|
2,5,9.2|
2,6,9.7|
2,7,9|
3,0,0.75|
3,1,7.1|
3,2,4.3|
3,3,4.5|
3,4,4.7|
3,5,7.4|
3,6,9.4|
3,7,1.2|
4,0,5.1|
4,1,2.3|
4,2,0.76|
4,3,0.53|
4,4,4.9|
4,5,9.3|
4,6,6.4|
4,7,6.8|
5,0,6.1|
5,1,7|
5,2,0.76|
5,3,1.1|
5,4,5.8|
5,5,8.3|
5,6,0.64|
5,7,0.44|
6,0,4.4|
6,1,8.3|
6,2,6.9|
6,3,2.7|
6,4,7.3|
6,5,5.5|
6,6,1.4|
6,7,5.2|
7,0,0.58|
7,1,3.9|
7,2,6.1|
7,3,1.6|
7,4,3.2|
7,5,0.25|
7,6,4.9|
7,7,8.1|
];
constraint_x8_x7=[
0,0,5.3|
0,1,5.6|
0,2,3.6|
0,3,6.8|
0,4,6.7|
0,5,1.8|
0,6,2.5|
0,7,6.8|
1,0,4.1|
1,1,7.2|
1,2,2.3|
1,3,2.6|
1,4,4|
1,5,5.6|
1,6,5.1|
1,7,3.8|
2,0,9.5|
2,1,9.7|
2,2,8|
2,3,7.5|
2,4,6.3|
2,5,6|
2,6,6.3|
2,7,5.8|
3,0,4.6|
3,1,6|
3,2,7.7|
3,3,8.7|
3,4,9.3|
3,5,0.69|
3,6,6.7|
3,7,0.99|
4,0,9.1|
4,1,8.3|
4,2,1.4|
4,3,0.29|
4,4,3.2|
4,5,0.43|
4,6,0.99|
4,7,4.2|
5,0,8.8|
5,1,2.1|
5,2,2.2|
5,3,10|
5,4,2|
5,5,7.7|
5,6,4.5|
5,7,0.57|
6,0,7.5|
6,1,9.8|
6,2,1.8|
6,3,9.8|
6,4,6.4|
6,5,2.6|
6,6,5.7|
6,7,6.9|
7,0,7.2|
7,1,6.9|
7,2,6.9|
7,3,7.8|
7,4,1.6|
7,5,0.47|
7,6,8.4|
7,7,3.2|
];
constraint_x9_x5=[
0,0,7.6|
0,1,9.2|
0,2,3.6|
0,3,4.9|
0,4,4.8|
0,5,5|
0,6,0.038|
0,7,4.4|
1,0,8.7|
1,1,7.2|
1,2,1.6|
1,3,3.4|
1,4,9|
1,5,6.3|
1,6,0.69|
1,7,2.7|
2,0,9.3|
2,1,7|
2,2,5.5|
2,3,7.1|
2,4,9.6|
2,5,1.8|
2,6,4|
2,7,7.2|
3,0,8.4|
3,1,2.6|
3,2,0.21|
3,3,5.7|
3,4,9.4|
3,5,6.4|
3,6,4.1|
3,7,6.3|
4,0,7.3|
4,1,4.2|
4,2,0.22|
4,3,9.6|
4,4,4.8|
4,5,5.1|
4,6,9.6|
4,7,1.4|
5,0,6.2|
5,1,9.1|
5,2,4.1|
5,3,8.9|
5,4,0.03|
5,5,0.99|
5,6,4.8|
5,7,6.8|
6,0,9.1|
6,1,3.6|
6,2,8.3|
6,3,8.5|
6,4,1.2|
6,5,4.5|
6,6,2.9|
6,7,0.82|
7,0,0.03|
7,1,0.66|
7,2,0.026|
7,3,3.5|
7,4,8.9|
7,5,4.8|
7,6,8.3|
7,7,7.1|
];
constraint_x10_x6=[
0,0,3.5|
0,1,2.6|
0,2,7|
0,3,7.8|
0,4,6|
0,5,4.9|
0,6,5.2|
0,7,9.9|
1,0,2.3|
1,1,5.8|
1,2,2.2|
1,3,4.2|
1,4,1.7|
1,5,6.3|
1,6,1.7|
1,7,0.44|
2,0,9.9|
2,1,0.82|
2,2,3.3|
2,3,6.6|
2,4,2.1|
2,5,0.64|
2,6,1.2|
2,7,9.6|
3,0,0.84|
3,1,8.9|
3,2,1.7|
3,3,5.4|
3,4,2.2|
3,5,8.7|
3,6,8.1|
3,7,2.9|
4,0,6.9|
4,1,7.7|
4,2,6.6|
4,3,3.2|
4,4,9.4|
4,5,6.4|
4,6,1.3|
4,7,6|
5,0,4.2|
5,1,7.2|
5,2,9.5|
5,3,4.5|
5,4,7.3|
5,5,9.4|
5,6,9.7|
5,7,5.7|
6,0,1.5|
6,1,2.4|
6,2,7.4|
6,3,8|
6,4,6.4|
6,5,8.4|
6,6,7.3|
6,7,7.5|
7,0,0.52|
7,1,8|
7,2,1.5|
7,3,2.1|
7,4,9.6|
7,5,4.6|
7,6,7.2|
7,7,4|
];
constraint_x11_x7=[
0,0,4.4|
0,1,6.8|
0,2,0.66|
0,3,0.86|
0,4,1.8|
0,5,4.1|
0,6,8.1|
0,7,8.6|
1,0,2.1|
1,1,8.7|
1,2,1.1|
1,3,4|
1,4,7.1|
1,5,8.2|
1,6,8.1|
1,7,4.2|
2,0,1.6|
2,1,8|
2,2,4.6|
2,3,3.2|
2,4,4.6|
2,5,1.5|
2,6,2.4|
2,7,1.4|
3,0,3.3|
3,1,6.8|
3,2,6.5|
3,3,1.6|
3,4,2.4|
3,5,0.58|
3,6,7.1|
3,7,1.1|
4,0,0.18|
4,1,9.1|
4,2,2.8|
4,3,9.9|
4,4,2.6|
4,5,7.8|
4,6,6.3|
4,7,3.1|
5,0,4.3|
5,1,9.2|
5,2,4|
5,3,9|
5,4,1.6|
5,5,2.4|
5,6,8.5|
5,7,0.98|
6,0,1.7|
6,1,7.2|
6,2,1.9|
6,3,3.5|
6,4,5.8|
6,5,5.1|
6,6,8.2|
6,7,9.1|
7,0,2.1|
7,1,1.9|
7,2,3.3|
7,3,2.1|
7,4,4.7|
7,5,5.9|
7,6,5.9|
7,7,2.3|
];
constraint_x12_x8=[
0,0,0.6|
0,1,6.1|
0,2,3.9|
0,3,1.8|
0,4,5.4|
0,5,2|
0,6,9|
0,7,7.6|
1,0,9.3|
1,1,9.6|
1,2,3.8|
1,3,0.21|
1,4,6.2|
1,5,5|
1,6,5.4|
1,7,1.5|
2,0,1.3|
2,1,1.9|
2,2,0.95|
2,3,1.7|
2,4,6.4|
2,5,0.27|
2,6,8.7|
2,7,6.2|
3,0,9.4|
3,1,6|
3,2,9.3|
3,3,8|
3,4,0.044|
3,5,7.4|
3,6,2.9|
3,7,5.7|
4,0,6|
4,1,5.3|
4,2,2.5|
4,3,8.9|
4,4,7.7|
4,5,6.2|
4,6,0.049|
4,7,0.7|
5,0,9.2|
5,1,3.2|
5,2,1.2|
5,3,3.5|
5,4,6.7|
5,5,9.1|
5,6,6|
5,7,9.7|
6,0,5.4|
6,1,4.8|
6,2,3.2|
6,3,1.2|
6,4,3.5|
6,5,2.9|
6,6,5.3|
6,7,5.5|
7,0,0.039|
7,1,1.3|
7,2,6.5|
7,3,1.4|
7,4,0.38|
7,5,9.3|
7,6,4.7|
7,7,6.3|
];
constraint_x13_x9=[
0,0,6.6|
0,1,9.3|
0,2,7.6|
0,3,5.3|
0,4,2.9|
0,5,0.52|
0,6,2.8|
0,7,7.1|
1,0,0.64|
1,1,5.5|
1,2,4.3|
1,3,4.9|
1,4,1.7|
1,5,4|
1,6,4.6|
1,7,3.3|
2,0,4.6|
2,1,7.8|
2,2,0.11|
2,3,3|
2,4,8.8|
2,5,4.4|
2,6,5.5|
2,7,2.3|
3,0,3.7|
3,1,3.2|
3,2,6.2|
3,3,3.6|
3,4,5.8|
3,5,4.5|
3,6,1.4|
3,7,7.2|
4,0,6|
4,1,6.9|
4,2,7.8|
4,3,7.3|
4,4,7.1|
4,5,2.9|
4,6,8.6|
4,7,1.6|
5,0,9.3|
5,1,4.3|
5,2,3.9|
5,3,6.3|
5,4,3.7|
5,5,1.5|
5,6,1.1|
5,7,2.7|
6,0,7.8|
6,1,9.4|
6,2,7.8|
6,3,9.2|
6,4,7.3|
6,5,9.6|
6,6,2|
6,7,2.3|
7,0,9.5|
7,1,6.6|
7,2,3.7|
7,3,9.7|
7,4,8.5|
7,5,3.6|
7,6,3.8|
7,7,7.9|
];
constraint_x14_x10=[
0,0,3.2|
0,1,0.7|
0,2,9.8|
0,3,4.2|
0,4,6.7|
0,5,1.6|
0,6,4|
0,7,1.3|
1,0,7.9|
1,1,8.9|
1,2,4.2|
1,3,9.8|
1,4,7.8|
1,5,5.5|
1,6,8.2|
1,7,4.6|
2,0,0.99|
2,1,8.2|
2,2,9.8|
2,3,9.3|
2,4,6.7|
2,5,4.5|
2,6,5.4|
2,7,0.34|
3,0,7.1|
3,1,5.1|
3,2,0.48|
3,3,8.9|
3,4,4.9|
3,5,0.78|
3,6,0.072|
3,7,0.18|
4,0,9.2|
4,1,2.3|
4,2,0.79|
4,3,9.4|
4,4,7.2|
4,5,1.5|
4,6,4|
4,7,4.1|
5,0,0.7|
5,1,1.9|
5,2,7.4|
5,3,8.2|
5,4,5.7|
5,5,9.2|
5,6,8.7|
5,7,8.9|
6,0,3.6|
6,1,7.4|
6,2,7.5|
6,3,0.14|
6,4,4.3|
6,5,8.9|
6,6,3.1|
6,7,4.6|
7,0,5.4|
7,1,6.5|
7,2,2.5|
7,3,2.7|
7,4,6.9|
7,5,6.9|
7,6,8.2|
7,7,1.2|
];
constraint_x1_y1=[
0,0,0.96|
0,1,6.4|
0,2,6.2|
0,3,2.3|
0,4,0.24|
0,5,1.5|
0,6,7.3|
0,7,7|
1,0,1.5|
1,1,2.5|
1,2,4.1|
1,3,5.3|
1,4,3|
1,5,3.4|
1,6,4.5|
1,7,9.6|
2,0,8.7|
2,1,7.2|
2,2,6.1|
2,3,8.9|
2,4,6.3|
2,5,0.96|
2,6,3.5|
2,7,5.4|
3,0,7.9|
3,1,6.4|
3,2,4|
3,3,1.6|
3,4,5.9|
3,5,3.3|
3,6,8.6|
3,7,8.8|
4,0,4|
4,1,2.3|
4,2,1.2|
4,3,0.21|
4,4,4.6|
4,5,0.62|
4,6,5.1|
4,7,4.2|
5,0,2.3|
5,1,8.8|
5,2,5|
5,3,2.1|
5,4,1.3|
5,5,3.1|
5,6,8.3|
5,7,9.5|
6,0,8.5|
6,1,7.8|
6,2,5.6|
6,3,1.2|
6,4,8.3|
6,5,3.8|
6,6,4.8|
6,7,9.8|
7,0,4.6|
7,1,5|
7,2,0.13|
7,3,4.9|
7,4,6.8|
7,5,5.5|
7,6,4.8|
7,7,6.3|
];
constraint_x2_y2=[
0,0,8.2|
0,1,9.8|
0,2,0.45|
0,3,1.6|
0,4,7.9|
0,5,1.6|
0,6,6.8|
0,7,1.5|
1,0,0.71|
1,1,2|
1,2,5.8|
1,3,1.9|
1,4,9.4|
1,5,1|
1,6,3.3|
1,7,7.5|
2,0,4|
2,1,5.8|
2,2,7.7|
2,3,9|
2,4,0.85|
2,5,4.6|
2,6,9.4|
2,7,9.2|
3,0,2.1|
3,1,8.8|
3,2,9.7|
3,3,8.8|
3,4,6.4|
3,5,7.4|
3,6,7.1|
3,7,2|
4,0,4.1|
4,1,3.3|
4,2,9.3|
4,3,4.7|
4,4,3.4|
4,5,5.6|
4,6,1.9|
4,7,6.9|
5,0,6.9|
5,1,9.6|
5,2,6|
5,3,0.85|
5,4,9.8|
5,5,8.3|
5,6,8.3|
5,7,4.5|
6,0,2.5|
6,1,2.3|
6,2,3.2|
6,3,8.2|
6,4,2.9|
6,5,6.3|
6,6,0.89|
6,7,4.1|
7,0,5.4|
7,1,7.1|
7,2,2.5|
7,3,2.8|
7,4,3.3|
7,5,1.4|
7,6,7.2|
7,7,2|
];
constraint_x3_y3=[
0,0,6.4|
0,1,9.5|
0,2,4.6|
0,3,1.1|
0,4,1.3|
0,5,8.6|
0,6,0.96|
0,7,0.96|
1,0,0.8|
1,1,3|
1,2,2.9|
1,3,2.8|
1,4,6.5|
1,5,5.6|
1,6,3.2|
1,7,1.5|
2,0,6.4|
2,1,7.3|
2,2,5.1|
2,3,3.7|
2,4,2.8|
2,5,4.9|
2,6,1.8|
2,7,4.8|
3,0,6.1|
3,1,6.5|
3,2,9.4|
3,3,3.5|
3,4,9.2|
3,5,6.2|
3,6,6.5|
3,7,9.8|
4,0,6.9|
4,1,3|
4,2,3|
4,3,2.9|
4,4,1.1|
4,5,0.14|
4,6,1.3|
4,7,8.1|
5,0,2.1|
5,1,2.9|
5,2,4.9|
5,3,4.7|
5,4,2.4|
5,5,1.6|
5,6,5.4|
5,7,3.5|
6,0,3.2|
6,1,0.47|
6,2,9.9|
6,3,7.9|
6,4,7|
6,5,5.7|
6,6,9.2|
6,7,8.7|
7,0,7.7|
7,1,9.2|
7,2,1|
7,3,10|
7,4,4.2|
7,5,8.7|
7,6,2.5|
7,7,3.6|
];
constraint_x4_y4=[
0,0,7.1|
0,1,5.7|
0,2,6.1|
0,3,3.5|
0,4,8.5|
0,5,1.7|
0,6,6|
0,7,0.56|
1,0,2.3|
1,1,0.27|
1,2,7.7|
1,3,1.6|
1,4,8.7|
1,5,6.5|
1,6,5.8|
1,7,5.9|
2,0,0.71|
2,1,2.3|
2,2,4|
2,3,4.8|
2,4,1.6|
2,5,8.5|
2,6,9.9|
2,7,6.1|
3,0,7|
3,1,8.4|
3,2,6.7|
3,3,9.1|
3,4,7.9|
3,5,5.3|
3,6,4.8|
3,7,4.6|
4,0,3.5|
4,1,6.9|
4,2,7.9|
4,3,7.7|
4,4,3.1|
4,5,6|
4,6,5|
4,7,8.7|
5,0,6.1|
5,1,6.9|
5,2,6.8|
5,3,3.9|
5,4,3.7|
5,5,8.9|
5,6,9.9|
5,7,8.7|
6,0,3|
6,1,1.6|
6,2,2.4|
6,3,0.41|
6,4,4.3|
6,5,1.3|
6,6,9|
6,7,4.1|
7,0,0.54|
7,1,3|
7,2,3.4|
7,3,3.4|
7,4,6.6|
7,5,4.4|
7,6,4.7|
7,7,1.8|
];
constraint_x5_y5=[
0,0,6.4|
0,1,6.7|
0,2,5|
0,3,2.4|
0,4,9|
0,5,6.5|
0,6,0.86|
0,7,8.3|
1,0,2.3|
1,1,4.7|
1,2,8.7|
1,3,0.6|
1,4,5.6|
1,5,5.6|
1,6,9.4|
1,7,9.5|
2,0,5.9|
2,1,0.73|
2,2,7.5|
2,3,2.1|
2,4,9.5|
2,5,6.2|
2,6,5.4|
2,7,7.5|
3,0,6.3|
3,1,0.94|
3,2,4.6|
3,3,0.88|
3,4,9.2|
3,5,9.5|
3,6,0.34|
3,7,2.3|
4,0,4.6|
4,1,5.6|
4,2,1.8|
4,3,1.3|
4,4,5.8|
4,5,5.7|
4,6,5.3|
4,7,3.8|
5,0,1.3|
5,1,2.2|
5,2,8.8|
5,3,1.4|
5,4,9.9|
5,5,3.8|
5,6,2.8|
5,7,10|
6,0,4|
6,1,6.6|
6,2,5.1|
6,3,6.6|
6,4,2.7|
6,5,3.9|
6,6,1.1|
6,7,9.3|
7,0,5.6|
7,1,1.5|
7,2,5.5|
7,3,5.1|
7,4,1|
7,5,4.8|
7,6,8.5|
7,7,1.1|
];
constraint_x6_y6=[
0,0,4.1|
0,1,5.2|
0,2,2|
0,3,5.2|
0,4,8.7|
0,5,4.9|
0,6,0.6|
0,7,3.5|
1,0,9.6|
1,1,0.12|
1,2,6.7|
1,3,4.3|
1,4,1.6|
1,5,8.5|
1,6,4.9|
1,7,3.3|
2,0,9.3|
2,1,2.4|
2,2,9.9|
2,3,3.4|
2,4,5.2|
2,5,7.7|
2,6,4.3|
2,7,3.1|
3,0,7.5|
3,1,3.3|
3,2,7.9|
3,3,0.063|
3,4,0.82|
3,5,7.4|
3,6,4.5|
3,7,8.3|
4,0,6.5|
4,1,8.4|
4,2,8.5|
4,3,7.8|
4,4,4.6|
4,5,2.5|
4,6,3.2|
4,7,0.43|
5,0,7.7|
5,1,8.6|
5,2,8.4|
5,3,2.4|
5,4,4.6|
5,5,7.5|
5,6,7|
5,7,5.7|
6,0,5.2|
6,1,4|
6,2,2|
6,3,1.7|
6,4,1.2|
6,5,0.37|
6,6,9.7|
6,7,9|
7,0,0.49|
7,1,7.5|
7,2,4.2|
7,3,2.1|
7,4,1.4|
7,5,3.9|
7,6,0.069|
7,7,3.8|
];
initial_distribution_y1=[0.22,0.1,0.081,0.056,0.093,0.13,0.17,0.15];
initial_distribution_y2=[0.11,0.12,0.16,0.13,0.15,0.15,0.029,0.15];
initial_distribution_y3=[0.12,0.11,0.19,0.19,0.035,0.12,0.21,0.018];
initial_distribution_y4=[0.16,0.11,0.11,0.16,0.041,0.16,0.17,0.096];
initial_distribution_y5=[0.24,0.057,0.037,0.068,0.044,0.28,0.15,0.13];
initial_distribution_y6=[0.1,0.22,0.21,0.046,0.077,0.11,0.07,0.17];
transition_y1=[
0.12,0.15,0.2,0.13,0.16,0.013,0.13,0.1|
0.22,0.1,0.13,0.25,0.015,0.11,0.11,0.049|
0.12,0.19,0.069,0.094,0.17,0.11,0.11,0.13|
0.06,0.18,0.23,0.026,0.03,0.12,0.14,0.21|
0.16,0.054,0.22,0.17,0.22,0.076,0.095,0.0038|
0.016,0.07,0.12,0.21,0.11,0.13,0.2,0.14|
0.083,0.051,0.2,0.16,0.12,0.12,0.15,0.12|
0.13,0.15,0.12,0.23,0.017,0.032,0.13,0.2|
];
transition_y2=[
0.041,0.2,0.16,0.083,0.039,0.14,0.17,0.16|
0.21,0.045,0.0046,0.12,0.16,0.17,0.23,0.073|
0.2,0.15,0.094,0.14,0.16,0.13,0.095,0.014|
0.1,0.14,0.0082,0.07,0.092,0.28,0.31,0.0064|
0.18,0.059,0.17,0.08,0.0047,0.24,0.089,0.18|
0.12,0.16,0.15,0.13,0.16,0.046,0.12,0.1|
0.15,0.12,0.12,0.18,0.15,0.026,0.14,0.12|
0.11,0.14,0.17,0.027,0.16,0.12,0.15,0.12|
];
transition_y3=[
0.18,0.071,0.078,0.19,0.18,0.072,0.13,0.1|
0.28,0.058,0.2,0.094,0.1,0.17,0.061,0.024|
0.18,0.11,0.099,0.23,0.11,0.06,0.036,0.18|
0.13,0.084,0.22,0.041,0.13,0.12,0.15,0.12|
0.085,0.2,0.16,0.13,0.17,0.03,0.077,0.15|
0.2,0.043,0.08,0.15,0.15,0.16,0.052,0.18|
0.14,0.19,0.099,0.098,0.075,0.092,0.16,0.15|
0.12,0.19,0.13,0.099,0.19,0.0059,0.14,0.12|
];
transition_y4=[
0.039,0.011,0.08,0.31,0.0072,0.15,0.15,0.25|
0.072,0.085,0.052,0.11,0.015,0.16,0.19,0.32|
0.13,0.1,0.25,0.15,0.11,0.13,0.011,0.12|
0.2,0.26,0.048,0.027,0.091,0.018,0.25,0.1|
0.031,0.21,0.11,0.2,0.19,0.084,0.0077,0.18|
0.17,0.07,0.16,0.19,0.21,0.048,0.078,0.075|
0.075,0.17,0.015,0.13,0.25,0.22,0.032,0.11|
0.038,0.15,0.19,0.11,0.15,0.0087,0.17,0.19|
];
transition_y5=[
0.17,0.1,0.19,0.076,0.18,0.0073,0.15,0.13|
0.25,0.032,0.083,0.098,0.11,0.16,0.023,0.25|
0.075,0.011,0.19,0.018,0.04,0.0095,0.48,0.18|
0.078,0.15,0.18,0.24,0.13,0.18,0.039,0.0036|
0.21,0.016,0.085,0.13,0.052,0.19,0.23,0.082|
0.17,0.098,0.22,0.12,0.057,0.13,0.15,0.053|
0.16,0.084,0.051,0.095,0.18,0.19,0.083,0.15|
0.19,0.19,0.2,0.16,0.0062,0.2,0.051,0.0073|
];
transition_y6=[
0.045,0.11,0.082,0.082,0.16,0.2,0.2,0.13|
0.11,0.023,0.23,0.2,0.029,0.19,0.092,0.13|
0.069,0.23,0.039,0.054,0.057,0.18,0.16,0.21|
0.15,0.16,0.12,0.036,0.17,0.13,0.21,0.013|
0.09,0.012,0.27,0.28,0.16,0.075,0.11,0.0059|
0.0095,0.25,0.17,0.14,0.051,0.095,0.2,0.089|
0.089,0.11,0.14,0.24,0.13,0.019,0.14,0.14|
0.035,0.057,0.19,0.21,0.054,0.078,0.12,0.26|
];
